data;

set INVESTEMENTS := 1 2 3 4 5;
param K := 4;
param G1 := 75000;
param:  bounds := 
    1   100000 
    2   0
    3   0 
    4   0;
param p := 0.08;

param Q (tr):
        1    2    3    4 :=
    1   -1   0.5  1    0
    2   0    -1   0.5  1
    3   -1   1.2  0    0
    4   -1   0    0    1.9
    5   0    0    -1   1.5;